0,7,13,2,13,14,9,11,2,4,
18,0,11,11,18,15,6,3,13,13,
8,3,0,11,16,4,4,7,17,19,
14,16,17,0,19,1,6,17,11,19,
8,12,5,12,0,12,5,16,1,18,
6,13,7,2,11,0,7,8,2,9,
13,10,9,17,6,17,0,9,17,5,
7,18,11,5,2,4,7,0,15,2,
8,15,11,7,1,3,5,2,0,4,
13,12,6,11,12,18,17,4,2,0,
